Version identifier: 22.1.1.0 | 2022-11-28 | 9160aff4d
CPXPARAM_ClockType                               1
CPXPARAM_Read_DataCheck                          1
CPXPARAM_Threads                                 1
CPXPARAM_Simplex_Tolerances_Optimality           1.0000000000000001e-09
CPXPARAM_TimeLimit                               7200
CPXPARAM_MIP_Tolerances_AbsMIPGap                0
CPXPARAM_MIP_Tolerances_MIPGap                   0
CPXPARAM_MIP_Tolerances_Integrality              0
Tried aggregator 5 times.
MIQP Presolve eliminated 31347 rows and 6955 columns.
MIQP Presolve modified 43 coefficients.
Aggregator did 5942 substitutions.
Reduced MIQP has 326342 rows, 114003 columns, and 1017814 nonzeros.
Reduced MIQP has 108288 binaries, 5715 generals, 0 SOSs, and 0 indicators.
Reduced MIQP objective Q matrix has 5715 nonzeros.
Presolve time = 2.25 sec. (1237.85 ticks)
Probing fixed 405 vars, tightened 615 bounds.
Probing time = 5.10 sec. (1364.23 ticks)
Tried aggregator 4 times.
MIQP Presolve eliminated 8745 rows and 2486 columns.
MIQP Presolve modified 559 coefficients.
Aggregator did 588 substitutions.
Reduced MIQP has 317009 rows, 110929 columns, and 993848 nonzeros.
Reduced MIQP has 105276 binaries, 5653 generals, 0 SOSs, and 0 indicators.
Reduced MIQP objective Q matrix has 5653 nonzeros.
Presolve time = 5.00 sec. (2543.14 ticks)
Classifier predicts products in MIQP should be linearized.
Probing time = 0.11 sec. (26.53 ticks)
Clique table members: 561983.
MIP emphasis: balance optimality and feasibility.
MIP search method: dynamic search.
Parallel mode: none, using 1 thread.
Root relaxation solution time = 4487.19 sec. (2771386.59 ticks)

        Nodes                                         Cuts/
   Node  Left     Objective  IInf  Best Integer    Best Bound    ItCnt     Gap

      0     0   138820.6053 51488                 138820.6053   511061         
      0     2   non-optimal                       138820.6053   511061         
Elapsed time = 7043.95 sec. (3296591.98 ticks, tree = 0.01 MB, solutions = 0)

Root node processing (before b&c):
  Real time             = 5720.86 sec. (3014339.49 ticks)
Sequential b&c:
  Real time             = 1479.67 sec. (316235.34 ticks)
                          ------------
Total (root+branch&cut) = 7200.53 sec. (3330574.84 ticks)
Solution is infeasible.

---------------------
@@@ MIP_time_limit_infeasible
Traceback (most recent call last):
  File "/scratch/scherif/DiverseSAT-journal_sup/DiverseSAT_Supplementary_Experiments/experiment-1/cplex/jobs/../solvers/CPLEX-QP-SE.py", line 118, in <module>
    print(f">>> Benchmark {os.path.basename(cnf_file)} k {k} OPT {int(prob.solution.get_objective_value())}"
  File "/users/scherif/.local/lib/python3.9/site-packages/cplex/_internal/_subinterfaces.py", line 7211, in get_objective_value
    return CPX_PROC.getobjval(self._env._e, self._cplex._lp)
  File "/users/scherif/.local/lib/python3.9/site-packages/cplex/_internal/_procedural.py", line 2055, in getobjval
    check_status(env, status)
  File "/users/scherif/.local/lib/python3.9/site-packages/cplex/_internal/_procedural.py", line 249, in __call__
    raise CplexSolverError(error_string, env, status)
cplex.exceptions.errors.CplexSolverError: CPLEX Error  1217: No solution exists.
